110010000001000011010011011101011110111001110101000010111110101101111001111001011100001111110010010011000000111111100001111001000100000111010010110010000110010100000110101110010001100000001000001101101111000010100010000000000000000010110100001010101111001000000010000000001111110010001000010101010101001000000011000101010111101110010110000000110001010110111011110101101100101111101011